DATASET = "thpack6";
INSTANCE = "034";

WIDTH = 233;
HEIGHT = 220;
LENGTH = 587;

NO_OF_SHAPES = 15;
size = [|
  68,35,27 |
  118,57,43 |
  73,72,36 |
  85,58,50 |
  86,56,33 |
  99,44,31 |
  93,54,49 |
  89,69,26 |
  98,90,74 |
  58,48,46 |
  56,55,22 |
  104,63,59 |
  80,69,66 |
  110,59,58 |
  96,79,63 |
|];

verticality = [|
  0,1,1 |
  0,1,1 |
  0,0,1 |
  1,1,1 |
  0,1,1 |
  0,1,1 |
  1,1,1 |
  0,0,1 |
  1,1,1 |
  1,1,1 |
  0,0,1 |
  1,1,1 |
  1,1,1 |
  1,1,1 |
  1,1,1 |
|];

box_count = [
  8,
  7,
  5,
  10,
  7,
  9,
  7,
  4,
  6,
  6,
  11,
  10,
  7,
  6,
  10,
];
